[2026-03-23T15:59:56.907Z] Pipeline "set_exp_3_exp_3_n020_c004_g004" → 2026_03_23_15_59_56_set_exp_3_exp_3_n020_c004_g004_max.sol
Set parameter WLSAccessID
Set parameter WLSSecret
Set parameter LicenseID to value 2792458
Set parameter LogFile to value "gurobi.log"
Using license file /root/gurobi.lic
Academic license 2792458 - for non-commercial use only - registered to an___@studenti.unipg.it

Gurobi Optimizer version 13.0.1 build v13.0.1rc0 (linux64 - "Ubuntu 24.04.4 LTS")
Copyright (c) 2026, Gurobi Optimization, LLC

Warning: Duplicate section found (read 'binary') - Is a variable name equal to an LP file format keyword?
Warning: Duplicate section found (read 'binary') - Is a variable name equal to an LP file format keyword?
Warning: Duplicate section found (read 'binary') - Is a variable name equal to an LP file format keyword?
Warning: Duplicate section found (read 'binary') - Is a variable name equal to an LP file format keyword?
Warning: Duplicate section found (read 'binary') - Is a variable name equal to an LP file format keyword?
Warning: Duplicate section found (read 'binary') - Is a variable name equal to an LP file format keyword?
Warning: Duplicate section found (read 'binary') - Is a variable name equal to an LP file format keyword?
Warning: Duplicate section found (read 'binary') - Is a variable name equal to an LP file format keyword?
Warning: Duplicate section found (read 'binary') - Is a variable name equal to an LP file format keyword?
Warning: Duplicate section found (read 'binary') - Is a variable name equal to an LP file format keyword?
Warning: Further warnings of this type will be omitted.
Read LP format model from file /root/bgw/data/uploads/2026_03_23_15_59_56_set_exp_3_exp_3_n020_c004_g004_max.lp
Reading time = 0.01 seconds
: 2856 rows, 316 columns, 8360 nonzeros

Using Gurobi shared library /opt/gurobi1301/linux64/lib/libgurobi.so.13.0.1

CPU model: AMD EPYC-Genoa Processor, instruction set [SSE2|AVX|AVX2|AVX512]
Thread count: 16 physical cores, 16 logical processors, using up to 16 threads

Academic license 2792458 - for non-commercial use only - registered to an___@studenti.unipg.it
Optimize a model with 2856 rows, 316 columns and 8360 nonzeros (Max)
Model fingerprint: 0x30e5dff5
Model has 4 linear objective coefficients
Variable types: 24 continuous, 292 integer (292 binary)
Coefficient statistics:
  Matrix range     [1e+00, 2e+01]
  Objective range  [1e+00, 1e+00]
  Bounds range     [1e+00, 1e+00]
  RHS range        [1e+00, 2e+01]

Found heuristic solution: objective 4.0000000
Presolve removed 545 rows and 106 columns
Presolve time: 0.02s
Presolved: 2311 rows, 210 columns, 7086 nonzeros
Variable types: 0 continuous, 210 integer (201 binary)
Found heuristic solution: objective 6.0000000

Root relaxation: objective 1.600000e+01, 176 iterations, 0.01 seconds (0.01 work units)

    Nodes    |    Current Node    |     Objective Bounds      |     Work
 Expl Unexpl |  Obj  Depth IntInf | Incumbent    BestBd   Gap | It/Node Time

     0     0   16.00000    0   35    6.00000   16.00000   167%     -    0s
H    0     0                       8.0000000   16.00000   100%     -    0s
H    0     0                       9.0000000   16.00000  77.8%     -    0s
H    0     0                      11.0000000   16.00000  45.5%     -    0s
     0     0   16.00000    0   38   11.00000   16.00000  45.5%     -    0s
     0     0   16.00000    0   38   11.00000   16.00000  45.5%     -    0s
H    0     0                      12.0000000   16.00000  33.3%     -    0s
     0     0   16.00000    0   35   12.00000   16.00000  33.3%     -    0s
     0     0   16.00000    0   20   12.00000   16.00000  33.3%     -    0s
     0     0   16.00000    0   13   12.00000   16.00000  33.3%     -    0s
     0     0   16.00000    0   13   12.00000   16.00000  33.3%     -    0s
     0     0   16.00000    0   19   12.00000   16.00000  33.3%     -    0s
     0     0   16.00000    0   19   12.00000   16.00000  33.3%     -    0s
     0     0   16.00000    0   22   12.00000   16.00000  33.3%     -    0s
     0     0   16.00000    0   20   12.00000   16.00000  33.3%     -    0s
     0     0   15.98148    0   13   12.00000   15.98148  33.2%     -    0s
     0     0   15.98148    0   13   12.00000   15.98148  33.2%     -    0s
     0     0   15.83333    0   13   12.00000   15.83333  31.9%     -    0s
     0     0   15.83333    0   13   12.00000   15.83333  31.9%     -    0s
     0     0   15.77778    0   13   12.00000   15.77778  31.5%     -    0s
     0     0   15.38889    0   21   12.00000   15.38889  28.2%     -    0s
     0     0   15.38889    0   13   12.00000   15.38889  28.2%     -    0s
     0     0   15.38889    0   13   12.00000   15.38889  28.2%     -    0s
     0     0   15.38889    0   13   12.00000   15.38889  28.2%     -    0s
     0     2   15.00000    0   13   12.00000   15.00000  25.0%     -    0s

Cutting planes:
  MIR: 1
  StrongCG: 1
  Inf proof: 6
  Zero half: 2

Explored 274 nodes (18455 simplex iterations) in 0.46 seconds (0.44 work units)
Thread count was 16 (of 16 available processors)

Solution count 6: 12 11 9 ... 4

Optimal solution found (tolerance 1.00e-04)
Best objective 1.200000000000e+01, best bound 1.200000000000e+01, gap 0.0000%

Wrote result file '/root/bgw/data/results/2026_03_23_15_59_56_set_exp_3_exp_3_n020_c004_g004_max.sol'

